c generated by sgen
p cnf 53 116
-2 -3 -4 0
-1 -3 -4 0
-1 -2 -4 0
-1 -2 -3 0
-6 -7 -8 0
-5 -7 -8 0
-5 -6 -8 0
-5 -6 -7 0
-10 -11 -12 0
-9 -11 -12 0
-9 -10 -12 0
-9 -10 -11 0
-14 -15 -16 0
-13 -15 -16 0
-13 -14 -16 0
-13 -14 -15 0
-18 -19 -20 0
-17 -19 -20 0
-17 -18 -20 0
-17 -18 -19 0
-22 -23 -24 0
-21 -23 -24 0
-21 -22 -24 0
-21 -22 -23 0
-26 -27 -28 0
-25 -27 -28 0
-25 -26 -28 0
-25 -26 -27 0
-30 -31 -32 0
-29 -31 -32 0
-29 -30 -32 0
-29 -30 -31 0
-34 -35 -36 0
-33 -35 -36 0
-33 -34 -36 0
-33 -34 -35 0
-38 -39 -40 0
-37 -39 -40 0
-37 -38 -40 0
-37 -38 -39 0
-42 -43 -44 0
-41 -43 -44 0
-41 -42 -44 0
-41 -42 -43 0
-46 -47 -48 0
-45 -47 -48 0
-45 -46 -48 0
-45 -46 -47 0
-49 -50 -51 0
-49 -50 -52 0
-49 -50 -53 0
-49 -51 -52 0
-49 -51 -53 0
-49 -52 -53 0
-50 -51 -52 0
-50 -51 -53 0
-50 -52 -53 0
-51 -52 -53 0
17 49 28 0
36 49 28 0
36 17 28 0
36 17 49 0
35 13 40 0
32 13 40 0
32 35 40 0
32 35 13 0
27 8 48 0
16 8 48 0
16 27 48 0
16 27 8 0
20 25 11 0
23 25 11 0
23 20 11 0
23 20 25 0
29 53 21 0
3 53 21 0
3 29 21 0
3 29 53 0
50 47 22 0
38 47 22 0
38 50 22 0
38 50 47 0
30 45 41 0
19 45 41 0
19 30 41 0
19 30 45 0
31 51 10 0
7 51 10 0
7 31 10 0
7 31 51 0
24 6 44 0
33 6 44 0
33 24 44 0
33 24 6 0
12 42 52 0
15 42 52 0
15 12 52 0
15 12 42 0
4 26 43 0
37 26 43 0
37 4 43 0
37 4 26 0
46 34 1 0
9 34 1 0
9 46 1 0
9 46 34 0
18 14 5 0
18 14 2 0
18 14 39 0
18 5 2 0
18 5 39 0
18 2 39 0
14 5 2 0
14 5 39 0
14 2 39 0
5 2 39 0
